NAME: kroB200
COMMENT: Quick (5min) local search tour for kroB200 (33892.74542530413)
TYPE: TOUR
DIMENSION: 200
TOUR_SECTION: 1 95 98 174 12 57 34 169 84 7 58 52 116 163 54 154 191 177 143 171 193 144 135 162 45 36 119 96 137 19 151 92 200 130 44 102 148 41 192 17 78 2 155 13 187 126 63 31 48 195 51 128 112 15 147 33 6 182 83 4 145 66 133 168 114 87 165 74 60 186 196 43 89 64 82 121 156 110 109 42 120 125 14 118 185 164 50 159 106 140 183 103 16 77 105 18 24 153 160 55 104 23 22 88 139 173 115 37 72 184 141 65 124 127 188 79 47 179 81 113 101 56 100 26 62 69 150 75 30 181 134 49 86 138 166 108 152 38 20 80 146 46 25 9 161 71 27 176 180 94 178 199 131 157 172 61 35 107 76 59 167 175 32 136 29 8 99 97 91 129 28 158 93 11 3 85 122 73 53 170 149 70 198 39 67 197 5 132 194 40 117 190 189 111 68 10 142 123 21 90 -1
EOF